c description: Random 3-CNF over 25 variables and 107 clauses
c generator: CNFgen (0.9.2)
c copyright: (C) 2012-2022 Massimo Lauria <massimo.lauria@uniroma1.it>
c url: https://massimolauria.net/cnfgen
c command line: cnfgen --output CNF_4.28/25_bit_107_462.cnf randkcnf 3 25 107
c
p cnf 25 107
-6 -16 24 0
5 -15 16 0
1 7 12 0
-5 -13 20 0
3 11 -19 0
7 -8 9 0
2 15 18 0
-6 -17 -20 0
11 12 13 0
-10 -20 -25 0
-18 20 -22 0
-2 -11 22 0
-8 17 23 0
-2 3 -14 0
10 -11 -12 0
-7 -9 14 0
13 -14 -17 0
-5 6 -13 0
-18 19 23 0
-3 -22 25 0
-10 15 21 0
5 7 -8 0
2 -10 -23 0
1 -24 -25 0
-1 -9 16 0
-4 10 15 0
-16 -18 21 0
-6 12 15 0
-2 -4 24 0
-6 -17 24 0
7 10 16 0
-2 -4 8 0
1 -12 -16 0
-4 -12 -19 0
-6 10 19 0
1 4 16 0
3 -9 -15 0
8 -9 -15 0
-8 10 15 0
2 14 -23 0
-3 5 -14 0
6 -9 -24 0
1 9 -10 0
15 -16 -20 0
-10 13 23 0
-1 -2 8 0
10 18 21 0
-9 -10 -14 0
7 9 -12 0
7 11 18 0
7 -11 -24 0
-17 -23 25 0
-12 20 22 0
3 6 13 0
-10 20 -21 0
-7 16 -20 0
3 6 -9 0
-4 -17 23 0
1 -11 -14 0
2 -20 24 0
-15 -22 24 0
-2 -11 -20 0
-18 20 24 0
-10 22 -24 0
-11 -17 23 0
-9 10 -22 0
12 -17 -19 0
-16 -20 -22 0
-2 -6 -19 0
-3 -8 -21 0
2 -20 -22 0
-3 -17 24 0
3 9 -12 0
-13 -18 24 0
7 16 22 0
9 -10 15 0
6 7 -14 0
-4 17 -24 0
-15 17 -18 0
-2 16 -25 0
8 13 -14 0
-4 6 -13 0
7 18 -24 0
-1 5 -19 0
-7 10 13 0
-4 -6 12 0
-4 -5 11 0
11 19 22 0
5 -6 16 0
6 9 24 0
18 21 -24 0
-9 23 24 0
-6 -10 15 0
-9 -11 -17 0
6 11 -25 0
-4 17 -23 0
5 13 24 0
5 12 18 0
-9 11 23 0
-14 23 25 0
5 -8 -23 0
7 -11 -20 0
5 18 -24 0
-1 -17 18 0
7 10 -21 0
13 -17 20 0
-9 12 20 0
